8969
8326
9113
9323
4333
9019
2894
7413
1824
759
3003
7190
3303
8243
1962
8371
5287
7310
8464
1336
667
6066
4894
3268
3548
10060
9819
4834
5843
7621
9497
6903
4071
4740
2754
5028
6462
6815
1478
2396
3463
5240
2004
7233
4118
5420
6867
2866
7747
5468
3920
